
Gurobi 12.0.3 (linux64) logging started Fri Mar 27 12:34:04 2026

Set parameter LogFile to value "/home/solar-wind/WT_Solar_results_bigM100000_thread4/case24_ieee_rts_theta0.15_epsilon0.1_gurobi_seed30000_num_gen38_N_WDR100_load_scaling_factor1_FICA_T24_num_Solar5_num_WT10.txt"
Gurobi Optimizer version 12.0.3 build v12.0.3rc0 (linux64 - "Ubuntu 22.04.5 LTS")

CPU model: Intel(R) Xeon(R) Platinum 8378A CPU @ 3.00GHz, instruction set [SSE2|AVX|AVX2|AVX512]
Thread count: 32 physical cores, 64 logical processors, using up to 4 threads

Non-default parameters:
TimeLimit  14400
MIPGap  0.001
Seed  30000
Threads  4

Academic license 2721591 - for non-commercial use only - registered to fa___@mails.neu.edu.cn
Optimize a model with 513884 rows, 1925 columns and 27769720 nonzeros
Model fingerprint: 0x3185d3f4
Model has 912 quadratic objective terms
Coefficient statistics:
  Matrix range     [3e-07, 7e+01]
  Objective range  [2e+01, 6e+01]
  QObjective range [4e-03, 2e-02]
  Bounds range     [0e+00, 0e+00]
  RHS range        [2e-02, 1e+03]
Presolve removed 275837 rows and 0 columns
Presolve time: 3.26s
Presolved: 238047 rows, 2799 columns, 2939024 nonzeros
Presolved model has 912 quadratic objective terms
Elapsed ordering time = 5s
Elapsed ordering time = 20s
Elapsed ordering time = 20s
Ordering time: 39.88s
Elapsed ordering time = 40s
Elapsed ordering time = 45s
Elapsed ordering time = 48s
Elapsed ordering time = 52s
Elapsed ordering time = 56s
Elapsed ordering time = 60s
Ordering time: 64.06s

Barrier statistics:
 Dense cols : 1009
 AA' NZ     : 1.921e+08
 Factor NZ  : 5.853e+08 (roughly 5.0 GB of memory)
 Factor Ops : 4.548e+12 (roughly 25 seconds per iteration)
 Threads    : 4

                  Objective                Residual
Iter       Primal          Dual         Primal    Dual     Compl     Time
   0   5.56169125e+08 -2.96419458e+08  3.75e+04 9.96e+02  9.95e+05   179s
   1   4.71655127e+08 -2.16879646e+08  3.36e+04 8.91e+02  8.91e+05   180s
   2   4.63542650e+08 -2.09905741e+08  3.32e+04 8.80e+02  8.80e+05   180s
   3   4.58433638e+08 -2.13856302e+08  3.29e+04 8.73e+02  8.74e+05   180s
   4   2.94118873e+08 -3.10210321e+08  2.46e+04 6.41e+02  6.45e+05   181s
   5   2.53919286e+08 -3.75560913e+08  2.22e+04 5.76e+02  6.03e+05   181s
   6   2.22054297e+08 -4.07699746e+08  1.99e+04 5.21e+02  5.46e+05   181s
   7   1.95230191e+08 -4.87501045e+08  1.82e+04 4.71e+02  5.27e+05   181s
   8   1.52213265e+08 -5.82273884e+08  1.51e+04 3.87e+02  4.55e+05   181s
   9   1.23963874e+08 -6.22374101e+08  1.28e+04 3.28e+02  3.87e+05   181s
  10   1.04821751e+08 -6.49065742e+08  1.11e+04 2.84e+02  3.38e+05   181s
  11   8.12618349e+07 -6.75658125e+08  9.00e+03 2.28e+02  2.73e+05   181s
  12   6.17306523e+07 -6.92738753e+08  7.07e+03 1.79e+02  2.17e+05   182s
  13   2.48665733e+07 -7.16888113e+08  3.19e+03 7.97e+01  1.18e+05   182s
  14   1.05587138e+07 -7.24625763e+08  1.56e+03 3.46e+01  5.72e+04   182s
  15   3.18575348e+06 -6.76919709e+08  6.25e+02 9.31e+00  1.82e+04   182s
  16   2.44433443e+06 -6.13924621e+08  4.57e+02 6.75e+00  1.34e+04   182s
  17   1.90848657e+06 -5.54933289e+08  3.35e+02 4.90e+00  9.92e+03   182s
  18   1.43739823e+06 -4.86296594e+08  2.21e+02 3.20e+00  6.68e+03   182s
  19   1.15485501e+06 -4.25314411e+08  1.49e+02 2.16e+00  4.64e+03   182s
  20   9.75998710e+05 -3.66460391e+08  1.00e+02 1.46e+00  3.26e+03   182s
  21   8.70206780e+05 -3.23160541e+08  6.80e+01 9.87e-01  2.41e+03   183s
  22   8.21874355e+05 -2.95730256e+08  5.37e+01 7.71e-01  2.00e+03   183s
  23   7.82470739e+05 -2.58891382e+08  4.03e+01 5.75e-01  1.59e+03   183s
  24   7.55128558e+05 -2.21753303e+08  2.99e+01 4.28e-01  1.26e+03   183s
  25   7.36625583e+05 -1.94847017e+08  2.26e+01 3.26e-01  1.04e+03   184s
  26   7.25946832e+05 -1.75865166e+08  1.83e+01 2.64e-01  9.02e+02   184s
  27   7.18640017e+05 -1.60487410e+08  1.51e+01 2.18e-01  7.99e+02   185s
  28   7.04414312e+05 -1.03669730e+08  7.98e+00 1.13e-01  4.81e+02   185s
  29   7.02183427e+05 -9.87361373e+07  6.86e+00 9.67e-02  4.54e+02   187s
  30   7.00125435e+05 -9.00018544e+07  5.96e+00 8.40e-02  4.17e+02   198s
  31   6.96160726e+05 -7.28754846e+07  4.10e+00 4.15e-01  3.27e+02   211s
  32   6.86646588e+05 -4.22747588e+07  4.94e-06 9.98e-03  1.78e+02   222s
  33   6.81279531e+05 -1.44932287e+05  1.56e-03 1.53e-01  3.42e+00   234s
  34   6.17033830e+05  3.56628383e+05  1.07e-04 5.56e-02  1.08e+00   247s
  35   5.99215526e+05  5.50142528e+05  1.34e-05 6.07e-03  2.03e-01   261s
  36   5.95694386e+05  5.70201177e+05  1.88e-06 8.50e-04  1.05e-01   283s
  37   5.94296341e+05  5.85161841e+05  1.69e-07 7.62e-05  3.78e-02   304s
  38   5.93931045e+05  5.89321120e+05  6.92e-09 3.13e-06  1.91e-02   327s
  39   5.93772091e+05  5.91277625e+05  3.43e-09 1.55e-06  1.03e-02   347s
  40   5.93648980e+05  5.92811785e+05  1.96e-10 6.40e-09  3.46e-03   370s
  41   5.93613886e+05  5.93251386e+05  4.93e-10 3.89e-10  1.50e-03   391s
  42   5.93596208e+05  5.93475228e+05  3.17e-10 3.56e-10  5.01e-04   412s
  43   5.93588569e+05  5.93571475e+05  5.66e-10 4.21e-12  7.07e-05   433s
  44   5.93587320e+05  5.93587294e+05  2.88e-09 6.52e-10  1.10e-07   454s
  45   5.93587318e+05  5.93587318e+05  1.80e-08 1.41e-09  7.07e-10   476s

Barrier solved model in 45 iterations and 475.80 seconds (509.31 work units)
Optimal objective 5.93587318e+05

